\ This file has been generated by DOcplex
\ ENCODING=ISO-8859-1
\Problem name: MarketSharingProblem

Minimize
 obj: - 90604228 x_0 - 165563346 x_1 - 78174512 x_2 - 63589422 x_3
      - 48847292 x_4 - 98515118 x_5 - 78107770 x_6 - 139274850 x_7
      - 49318412 x_8 - 133813784 x_9 - 1008981 s_plus_0@0 - 2017962 s_plus_0@1
      - 4035924 s_plus_0@2 - 8071848 s_plus_0@3 - 16143696 s_plus_0@4
      - 32287392 s_plus_0@5 - 64574784 s_plus_0@6 - 129149568 s_plus_0@7
      - 258299136 s_plus_0@8 - 3026943 s_plus_0@9 - 914757 s_plus_1@0
      - 1829514 s_plus_1@1 - 3659028 s_plus_1@2 - 7318056 s_plus_1@3
      - 14636112 s_plus_1@4 - 29272224 s_plus_1@5 - 58544448 s_plus_1@6
      - 117088896 s_plus_1@7 - 193928484 s_plus_1@8 + 1008983 s_minus_0@0
      + 2017966 s_minus_0@1 + 4035932 s_minus_0@2 + 8071864 s_minus_0@3
      + 16143728 s_minus_0@4 + 32287456 s_minus_0@5 + 64574912 s_minus_0@6
      + 129149824 s_minus_0@7 + 258299648 s_minus_0@8 + 3026949 s_minus_0@9
      + 914759 s_minus_1@0 + 1829518 s_minus_1@1 + 3659036 s_minus_1@2
      + 7318072 s_minus_1@3 + 14636144 s_minus_1@4 + 29272288 s_minus_1@5
      + 58544576 s_minus_1@6 + 117089152 s_minus_1@7 + 193928908 s_minus_1@8 + [
      17376476 x_0^2 + 63467716 x_0*x_1 + 29931824 x_0*x_2 + 24537500 x_0*x_3
      + 18703464 x_0*x_4 + 37728860 x_0*x_5 + 29861156 x_0*x_6
      + 53542788 x_0*x_7 + 18860504 x_0*x_8 + 51383488 x_0*x_9
      + 384748 x_0*s_plus_0@0 + 769496 x_0*s_plus_0@1 + 1538992 x_0*s_plus_0@2
      + 3077984 x_0*s_plus_0@3 + 6155968 x_0*s_plus_0@4
      + 12311936 x_0*s_plus_0@5 + 24623872 x_0*s_plus_0@6
      + 49247744 x_0*s_plus_0@7 + 98495488 x_0*s_plus_0@8
      + 1154244 x_0*s_plus_0@9 + 353340 x_0*s_plus_1@0 + 706680 x_0*s_plus_1@1
      + 1413360 x_0*s_plus_1@2 + 2826720 x_0*s_plus_1@3 + 5653440 x_0*s_plus_1@4
      + 11306880 x_0*s_plus_1@5 + 22613760 x_0*s_plus_1@6
      + 45227520 x_0*s_plus_1@7 + 74908080 x_0*s_plus_1@8
      - 384748 x_0*s_minus_0@0 - 769496 x_0*s_minus_0@1
      - 1538992 x_0*s_minus_0@2 - 3077984 x_0*s_minus_0@3
      - 6155968 x_0*s_minus_0@4 - 12311936 x_0*s_minus_0@5
      - 24623872 x_0*s_minus_0@6 - 49247744 x_0*s_minus_0@7
      - 98495488 x_0*s_minus_0@8 - 1154244 x_0*s_minus_0@9
      - 353340 x_0*s_minus_1@0 - 706680 x_0*s_minus_1@1
      - 1413360 x_0*s_minus_1@2 - 2826720 x_0*s_minus_1@3
      - 5653440 x_0*s_minus_1@4 - 11306880 x_0*s_minus_1@5
      - 22613760 x_0*s_minus_1@6 - 45227520 x_0*s_minus_1@7
      - 74908080 x_0*s_minus_1@8 + 58438510 x_1^2 + 56055428 x_1*x_2
      + 40995292 x_1*x_3 + 35012068 x_1*x_4 + 70424588 x_1*x_5
      + 57099744 x_1*x_6 + 94624452 x_1*x_7 + 35915048 x_1*x_8
      + 92363076 x_1*x_9 + 761644 x_1*s_plus_0@0 + 1523288 x_1*s_plus_0@1
      + 3046576 x_1*s_plus_0@2 + 6093152 x_1*s_plus_0@3
      + 12186304 x_1*s_plus_0@4 + 24372608 x_1*s_plus_0@5
      + 48745216 x_1*s_plus_0@6 + 97490432 x_1*s_plus_0@7
      + 194980864 x_1*s_plus_0@8 + 2284932 x_1*s_plus_0@9
      + 581048 x_1*s_plus_1@0 + 1162096 x_1*s_plus_1@1 + 2324192 x_1*s_plus_1@2
      + 4648384 x_1*s_plus_1@3 + 9296768 x_1*s_plus_1@4
      + 18593536 x_1*s_plus_1@5 + 37187072 x_1*s_plus_1@6
      + 74374144 x_1*s_plus_1@7 + 123182176 x_1*s_plus_1@8
      - 761644 x_1*s_minus_0@0 - 1523288 x_1*s_minus_0@1
      - 3046576 x_1*s_minus_0@2 - 6093152 x_1*s_minus_0@3
      - 12186304 x_1*s_minus_0@4 - 24372608 x_1*s_minus_0@5
      - 48745216 x_1*s_minus_0@6 - 97490432 x_1*s_minus_0@7
      - 194980864 x_1*s_minus_0@8 - 2284932 x_1*s_minus_0@9
      - 581048 x_1*s_minus_1@0 - 1162096 x_1*s_minus_1@1
      - 2324192 x_1*s_minus_1@2 - 4648384 x_1*s_minus_1@3
      - 9296768 x_1*s_minus_1@4 - 18593536 x_1*s_minus_1@5
      - 37187072 x_1*s_minus_1@6 - 74374144 x_1*s_minus_1@7
      - 123182176 x_1*s_minus_1@8 + 13890188 x_2^2 + 15649036 x_2*x_3
      + 17337216 x_2*x_4 + 34682284 x_2*x_5 + 29405740 x_2*x_6
      + 41576340 x_2*x_7 + 18357976 x_2*x_8 + 42133832 x_2*x_9
      + 416156 x_2*s_plus_0@0 + 832312 x_2*s_plus_0@1 + 1664624 x_2*s_plus_0@2
      + 3329248 x_2*s_plus_0@3 + 6658496 x_2*s_plus_0@4
      + 13316992 x_2*s_plus_0@5 + 26633984 x_2*s_plus_0@6
      + 53267968 x_2*s_plus_0@7 + 106535936 x_2*s_plus_0@8
      + 1248468 x_2*s_plus_0@9 + 212004 x_2*s_plus_1@0 + 424008 x_2*s_plus_1@1
      + 848016 x_2*s_plus_1@2 + 1696032 x_2*s_plus_1@3 + 3392064 x_2*s_plus_1@4
      + 6784128 x_2*s_plus_1@5 + 13568256 x_2*s_plus_1@6
      + 27136512 x_2*s_plus_1@7 + 44944848 x_2*s_plus_1@8
      - 416156 x_2*s_minus_0@0 - 832312 x_2*s_minus_0@1
      - 1664624 x_2*s_minus_0@2 - 3329248 x_2*s_minus_0@3
      - 6658496 x_2*s_minus_0@4 - 13316992 x_2*s_minus_0@5
      - 26633984 x_2*s_minus_0@6 - 53267968 x_2*s_minus_0@7
      - 106535936 x_2*s_minus_0@8 - 1248468 x_2*s_minus_0@9
      - 212004 x_2*s_minus_1@0 - 424008 x_2*s_minus_1@1 - 848016 x_2*s_minus_1@2
      - 1696032 x_2*s_minus_1@3 - 3392064 x_2*s_minus_1@4
      - 6784128 x_2*s_minus_1@5 - 13568256 x_2*s_minus_1@6
      - 27136512 x_2*s_minus_1@7 - 44944848 x_2*s_minus_1@8 + 16179046 x_3^2
      + 9838556 x_3*x_4 + 20642908 x_3*x_5 + 10977096 x_3*x_6 + 50244948 x_3*x_7
      + 7522216 x_3*x_8 + 42094572 x_3*x_9 + 39260 x_3*s_plus_0@0
      + 78520 x_3*s_plus_0@1 + 157040 x_3*s_plus_0@2 + 314080 x_3*s_plus_0@3
      + 628160 x_3*s_plus_0@4 + 1256320 x_3*s_plus_0@5 + 2512640 x_3*s_plus_0@6
      + 5025280 x_3*s_plus_0@7 + 10050560 x_3*s_plus_0@8 + 117780 x_3*s_plus_0@9
      + 502528 x_3*s_plus_1@0 + 1005056 x_3*s_plus_1@1 + 2010112 x_3*s_plus_1@2
      + 4020224 x_3*s_plus_1@3 + 8040448 x_3*s_plus_1@4
      + 16080896 x_3*s_plus_1@5 + 32161792 x_3*s_plus_1@6
      + 64323584 x_3*s_plus_1@7 + 106535936 x_3*s_plus_1@8
      - 39260 x_3*s_minus_0@0 - 78520 x_3*s_minus_0@1 - 157040 x_3*s_minus_0@2
      - 314080 x_3*s_minus_0@3 - 628160 x_3*s_minus_0@4
      - 1256320 x_3*s_minus_0@5 - 2512640 x_3*s_minus_0@6
      - 5025280 x_3*s_minus_0@7 - 10050560 x_3*s_minus_0@8
      - 117780 x_3*s_minus_0@9 - 502528 x_3*s_minus_1@0
      - 1005056 x_3*s_minus_1@1 - 2010112 x_3*s_minus_1@2
      - 4020224 x_3*s_minus_1@3 - 8040448 x_3*s_minus_1@4
      - 16080896 x_3*s_minus_1@5 - 32161792 x_3*s_minus_1@6
      - 64323584 x_3*s_minus_1@7 - 106535936 x_3*s_minus_1@8 + 5410028 x_4^2
      + 21647964 x_4*x_5 + 18334420 x_4*x_6 + 26029380 x_4*x_7
      + 11448216 x_4*x_8 + 26351312 x_4*x_9 + 259116 x_4*s_plus_0@0
      + 518232 x_4*s_plus_0@1 + 1036464 x_4*s_plus_0@2 + 2072928 x_4*s_plus_0@3
      + 4145856 x_4*s_plus_0@4 + 8291712 x_4*s_plus_0@5
      + 16583424 x_4*s_plus_0@6 + 33166848 x_4*s_plus_0@7
      + 66333696 x_4*s_plus_0@8 + 777348 x_4*s_plus_0@9 + 133484 x_4*s_plus_1@0
      + 266968 x_4*s_plus_1@1 + 533936 x_4*s_plus_1@2 + 1067872 x_4*s_plus_1@3
      + 2135744 x_4*s_plus_1@4 + 4271488 x_4*s_plus_1@5 + 8542976 x_4*s_plus_1@6
      + 17085952 x_4*s_plus_1@7 + 28298608 x_4*s_plus_1@8
      - 259116 x_4*s_minus_0@0 - 518232 x_4*s_minus_0@1
      - 1036464 x_4*s_minus_0@2 - 2072928 x_4*s_minus_0@3
      - 4145856 x_4*s_minus_0@4 - 8291712 x_4*s_minus_0@5
      - 16583424 x_4*s_minus_0@6 - 33166848 x_4*s_minus_0@7
      - 66333696 x_4*s_minus_0@8 - 777348 x_4*s_minus_0@9
      - 133484 x_4*s_minus_1@0 - 266968 x_4*s_minus_1@1 - 533936 x_4*s_minus_1@2
      - 1067872 x_4*s_minus_1@3 - 2135744 x_4*s_minus_1@4
      - 4271488 x_4*s_minus_1@5 - 8542976 x_4*s_minus_1@6
      - 17085952 x_4*s_minus_1@7 - 28298608 x_4*s_minus_1@8 + 21675446 x_5^2
      + 36448984 x_5*x_6 + 53165892 x_5*x_7 + 22786504 x_5*x_8
      + 53464268 x_5*x_9 + 510380 x_5*s_plus_0@0 + 1020760 x_5*s_plus_0@1
      + 2041520 x_5*s_plus_0@2 + 4083040 x_5*s_plus_0@3 + 8166080 x_5*s_plus_0@4
      + 16332160 x_5*s_plus_0@5 + 32664320 x_5*s_plus_0@6
      + 65328640 x_5*s_plus_0@7 + 130657280 x_5*s_plus_0@8
      + 1531140 x_5*s_plus_0@9 + 282672 x_5*s_plus_1@0 + 565344 x_5*s_plus_1@1
      + 1130688 x_5*s_plus_1@2 + 2261376 x_5*s_plus_1@3 + 4522752 x_5*s_plus_1@4
      + 9045504 x_5*s_plus_1@5 + 18091008 x_5*s_plus_1@6
      + 36182016 x_5*s_plus_1@7 + 59926464 x_5*s_plus_1@8
      - 510380 x_5*s_minus_0@0 - 1020760 x_5*s_minus_0@1
      - 2041520 x_5*s_minus_0@2 - 4083040 x_5*s_minus_0@3
      - 8166080 x_5*s_minus_0@4 - 16332160 x_5*s_minus_0@5
      - 32664320 x_5*s_minus_0@6 - 65328640 x_5*s_minus_0@7
      - 130657280 x_5*s_minus_0@8 - 1531140 x_5*s_minus_0@9
      - 282672 x_5*s_minus_1@0 - 565344 x_5*s_minus_1@1
      - 1130688 x_5*s_minus_1@2 - 2261376 x_5*s_minus_1@3
      - 4522752 x_5*s_minus_1@4 - 9045504 x_5*s_minus_1@5
      - 18091008 x_5*s_minus_1@6 - 36182016 x_5*s_minus_1@7
      - 59926464 x_5*s_minus_1@8 + 16226158 x_6^2 + 37642488 x_6*x_7
      + 20101120 x_6*x_8 + 40241500 x_6*x_9 + 486824 x_6*s_plus_0@0
      + 973648 x_6*s_plus_0@1 + 1947296 x_6*s_plus_0@2 + 3894592 x_6*s_plus_0@3
      + 7789184 x_6*s_plus_0@4 + 15578368 x_6*s_plus_0@5
      + 31156736 x_6*s_plus_0@6 + 62313472 x_6*s_plus_0@7
      + 124626944 x_6*s_plus_0@8 + 1460472 x_6*s_plus_0@9
      + 133484 x_6*s_plus_1@0 + 266968 x_6*s_plus_1@1 + 533936 x_6*s_plus_1@2
      + 1067872 x_6*s_plus_1@3 + 2135744 x_6*s_plus_1@4 + 4271488 x_6*s_plus_1@5
      + 8542976 x_6*s_plus_1@6 + 17085952 x_6*s_plus_1@7
      + 28298608 x_6*s_plus_1@8 - 486824 x_6*s_minus_0@0
      - 973648 x_6*s_minus_0@1 - 1947296 x_6*s_minus_0@2
      - 3894592 x_6*s_minus_0@3 - 7789184 x_6*s_minus_0@4
      - 15578368 x_6*s_minus_0@5 - 31156736 x_6*s_minus_0@6
      - 62313472 x_6*s_minus_0@7 - 124626944 x_6*s_minus_0@8
      - 1460472 x_6*s_minus_0@9 - 133484 x_6*s_minus_1@0
      - 266968 x_6*s_minus_1@1 - 533936 x_6*s_minus_1@2
      - 1067872 x_6*s_minus_1@3 - 2135744 x_6*s_minus_1@4
      - 4271488 x_6*s_minus_1@5 - 8542976 x_6*s_minus_1@6
      - 17085952 x_6*s_minus_1@7 - 28298608 x_6*s_minus_1@8 + 46393542 x_7^2
      + 24262680 x_7*x_8 + 83977140 x_7*x_9 + 400452 x_7*s_plus_0@0
      + 800904 x_7*s_plus_0@1 + 1601808 x_7*s_plus_0@2 + 3203616 x_7*s_plus_0@3
      + 6407232 x_7*s_plus_0@4 + 12814464 x_7*s_plus_0@5
      + 25628928 x_7*s_plus_0@6 + 51257856 x_7*s_plus_0@7
      + 102515712 x_7*s_plus_0@8 + 1201356 x_7*s_plus_0@9
      + 753792 x_7*s_plus_1@0 + 1507584 x_7*s_plus_1@1 + 3015168 x_7*s_plus_1@2
      + 6030336 x_7*s_plus_1@3 + 12060672 x_7*s_plus_1@4
      + 24121344 x_7*s_plus_1@5 + 48242688 x_7*s_plus_1@6
      + 96485376 x_7*s_plus_1@7 + 159803904 x_7*s_plus_1@8
      - 400452 x_7*s_minus_0@0 - 800904 x_7*s_minus_0@1
      - 1601808 x_7*s_minus_0@2 - 3203616 x_7*s_minus_0@3
      - 6407232 x_7*s_minus_0@4 - 12814464 x_7*s_minus_0@5
      - 25628928 x_7*s_minus_0@6 - 51257856 x_7*s_minus_0@7
      - 102515712 x_7*s_minus_0@8 - 1201356 x_7*s_minus_0@9
      - 753792 x_7*s_minus_1@0 - 1507584 x_7*s_minus_1@1
      - 3015168 x_7*s_minus_1@2 - 6030336 x_7*s_minus_1@3
      - 12060672 x_7*s_minus_1@4 - 24121344 x_7*s_minus_1@5
      - 48242688 x_7*s_minus_1@6 - 96485376 x_7*s_minus_1@7
      - 159803904 x_7*s_minus_1@8 + 6234488 x_8^2 + 25644632 x_8*x_9
      + 298376 x_8*s_plus_0@0 + 596752 x_8*s_plus_0@1 + 1193504 x_8*s_plus_0@2
      + 2387008 x_8*s_plus_0@3 + 4774016 x_8*s_plus_0@4 + 9548032 x_8*s_plus_0@5
      + 19096064 x_8*s_plus_0@6 + 38192128 x_8*s_plus_0@7
      + 76384256 x_8*s_plus_0@8 + 895128 x_8*s_plus_0@9 + 94224 x_8*s_plus_1@0
      + 188448 x_8*s_plus_1@1 + 376896 x_8*s_plus_1@2 + 753792 x_8*s_plus_1@3
      + 1507584 x_8*s_plus_1@4 + 3015168 x_8*s_plus_1@5 + 6030336 x_8*s_plus_1@6
      + 12060672 x_8*s_plus_1@7 + 19975488 x_8*s_plus_1@8
      - 298376 x_8*s_minus_0@0 - 596752 x_8*s_minus_0@1
      - 1193504 x_8*s_minus_0@2 - 2387008 x_8*s_minus_0@3
      - 4774016 x_8*s_minus_0@4 - 9548032 x_8*s_minus_0@5
      - 19096064 x_8*s_minus_0@6 - 38192128 x_8*s_minus_0@7
      - 76384256 x_8*s_minus_0@8 - 895128 x_8*s_minus_0@9
      - 94224 x_8*s_minus_1@0 - 188448 x_8*s_minus_1@1 - 376896 x_8*s_minus_1@2
      - 753792 x_8*s_minus_1@3 - 1507584 x_8*s_minus_1@4
      - 3015168 x_8*s_minus_1@5 - 6030336 x_8*s_minus_1@6
      - 12060672 x_8*s_minus_1@7 - 19975488 x_8*s_minus_1@8 + 39110812 x_9^2
      + 478972 x_9*s_plus_0@0 + 957944 x_9*s_plus_0@1 + 1915888 x_9*s_plus_0@2
      + 3831776 x_9*s_plus_0@3 + 7663552 x_9*s_plus_0@4
      + 15327104 x_9*s_plus_0@5 + 30654208 x_9*s_plus_0@6
      + 61308416 x_9*s_plus_0@7 + 122616832 x_9*s_plus_0@8
      + 1436916 x_9*s_plus_0@9 + 620308 x_9*s_plus_1@0 + 1240616 x_9*s_plus_1@1
      + 2481232 x_9*s_plus_1@2 + 4962464 x_9*s_plus_1@3 + 9924928 x_9*s_plus_1@4
      + 19849856 x_9*s_plus_1@5 + 39699712 x_9*s_plus_1@6
      + 79399424 x_9*s_plus_1@7 + 131505296 x_9*s_plus_1@8
      - 478972 x_9*s_minus_0@0 - 957944 x_9*s_minus_0@1
      - 1915888 x_9*s_minus_0@2 - 3831776 x_9*s_minus_0@3
      - 7663552 x_9*s_minus_0@4 - 15327104 x_9*s_minus_0@5
      - 30654208 x_9*s_minus_0@6 - 61308416 x_9*s_minus_0@7
      - 122616832 x_9*s_minus_0@8 - 1436916 x_9*s_minus_0@9
      - 620308 x_9*s_minus_1@0 - 1240616 x_9*s_minus_1@1
      - 2481232 x_9*s_minus_1@2 - 4962464 x_9*s_minus_1@3
      - 9924928 x_9*s_minus_1@4 - 19849856 x_9*s_minus_1@5
      - 39699712 x_9*s_minus_1@6 - 79399424 x_9*s_minus_1@7
      - 131505296 x_9*s_minus_1@8 + 3926 s_plus_0@0^2
      + 15704 s_plus_0@0*s_plus_0@1 + 31408 s_plus_0@0*s_plus_0@2
      + 62816 s_plus_0@0*s_plus_0@3 + 125632 s_plus_0@0*s_plus_0@4
      + 251264 s_plus_0@0*s_plus_0@5 + 502528 s_plus_0@0*s_plus_0@6
      + 1005056 s_plus_0@0*s_plus_0@7 + 2010112 s_plus_0@0*s_plus_0@8
      + 23556 s_plus_0@0*s_plus_0@9 - 7852 s_plus_0@0*s_minus_0@0
      - 15704 s_plus_0@0*s_minus_0@1 - 31408 s_plus_0@0*s_minus_0@2
      - 62816 s_plus_0@0*s_minus_0@3 - 125632 s_plus_0@0*s_minus_0@4
      - 251264 s_plus_0@0*s_minus_0@5 - 502528 s_plus_0@0*s_minus_0@6
      - 1005056 s_plus_0@0*s_minus_0@7 - 2010112 s_plus_0@0*s_minus_0@8
      - 23556 s_plus_0@0*s_minus_0@9 + 15704 s_plus_0@1^2
      + 62816 s_plus_0@1*s_plus_0@2 + 125632 s_plus_0@1*s_plus_0@3
      + 251264 s_plus_0@1*s_plus_0@4 + 502528 s_plus_0@1*s_plus_0@5
      + 1005056 s_plus_0@1*s_plus_0@6 + 2010112 s_plus_0@1*s_plus_0@7
      + 4020224 s_plus_0@1*s_plus_0@8 + 47112 s_plus_0@1*s_plus_0@9
      - 15704 s_plus_0@1*s_minus_0@0 - 31408 s_plus_0@1*s_minus_0@1
      - 62816 s_plus_0@1*s_minus_0@2 - 125632 s_plus_0@1*s_minus_0@3
      - 251264 s_plus_0@1*s_minus_0@4 - 502528 s_plus_0@1*s_minus_0@5
      - 1005056 s_plus_0@1*s_minus_0@6 - 2010112 s_plus_0@1*s_minus_0@7
      - 4020224 s_plus_0@1*s_minus_0@8 - 47112 s_plus_0@1*s_minus_0@9
      + 62816 s_plus_0@2^2 + 251264 s_plus_0@2*s_plus_0@3
      + 502528 s_plus_0@2*s_plus_0@4 + 1005056 s_plus_0@2*s_plus_0@5
      + 2010112 s_plus_0@2*s_plus_0@6 + 4020224 s_plus_0@2*s_plus_0@7
      + 8040448 s_plus_0@2*s_plus_0@8 + 94224 s_plus_0@2*s_plus_0@9
      - 31408 s_plus_0@2*s_minus_0@0 - 62816 s_plus_0@2*s_minus_0@1
      - 125632 s_plus_0@2*s_minus_0@2 - 251264 s_plus_0@2*s_minus_0@3
      - 502528 s_plus_0@2*s_minus_0@4 - 1005056 s_plus_0@2*s_minus_0@5
      - 2010112 s_plus_0@2*s_minus_0@6 - 4020224 s_plus_0@2*s_minus_0@7
      - 8040448 s_plus_0@2*s_minus_0@8 - 94224 s_plus_0@2*s_minus_0@9
      + 251264 s_plus_0@3^2 + 1005056 s_plus_0@3*s_plus_0@4
      + 2010112 s_plus_0@3*s_plus_0@5 + 4020224 s_plus_0@3*s_plus_0@6
      + 8040448 s_plus_0@3*s_plus_0@7 + 16080896 s_plus_0@3*s_plus_0@8
      + 188448 s_plus_0@3*s_plus_0@9 - 62816 s_plus_0@3*s_minus_0@0
      - 125632 s_plus_0@3*s_minus_0@1 - 251264 s_plus_0@3*s_minus_0@2
      - 502528 s_plus_0@3*s_minus_0@3 - 1005056 s_plus_0@3*s_minus_0@4
      - 2010112 s_plus_0@3*s_minus_0@5 - 4020224 s_plus_0@3*s_minus_0@6
      - 8040448 s_plus_0@3*s_minus_0@7 - 16080896 s_plus_0@3*s_minus_0@8
      - 188448 s_plus_0@3*s_minus_0@9 + 1005056 s_plus_0@4^2
      + 4020224 s_plus_0@4*s_plus_0@5 + 8040448 s_plus_0@4*s_plus_0@6
      + 16080896 s_plus_0@4*s_plus_0@7 + 32161792 s_plus_0@4*s_plus_0@8
      + 376896 s_plus_0@4*s_plus_0@9 - 125632 s_plus_0@4*s_minus_0@0
      - 251264 s_plus_0@4*s_minus_0@1 - 502528 s_plus_0@4*s_minus_0@2
      - 1005056 s_plus_0@4*s_minus_0@3 - 2010112 s_plus_0@4*s_minus_0@4
      - 4020224 s_plus_0@4*s_minus_0@5 - 8040448 s_plus_0@4*s_minus_0@6
      - 16080896 s_plus_0@4*s_minus_0@7 - 32161792 s_plus_0@4*s_minus_0@8
      - 376896 s_plus_0@4*s_minus_0@9 + 4020224 s_plus_0@5^2
      + 16080896 s_plus_0@5*s_plus_0@6 + 32161792 s_plus_0@5*s_plus_0@7
      + 64323584 s_plus_0@5*s_plus_0@8 + 753792 s_plus_0@5*s_plus_0@9
      - 251264 s_plus_0@5*s_minus_0@0 - 502528 s_plus_0@5*s_minus_0@1
      - 1005056 s_plus_0@5*s_minus_0@2 - 2010112 s_plus_0@5*s_minus_0@3
      - 4020224 s_plus_0@5*s_minus_0@4 - 8040448 s_plus_0@5*s_minus_0@5
      - 16080896 s_plus_0@5*s_minus_0@6 - 32161792 s_plus_0@5*s_minus_0@7
      - 64323584 s_plus_0@5*s_minus_0@8 - 753792 s_plus_0@5*s_minus_0@9
      + 16080896 s_plus_0@6^2 + 64323584 s_plus_0@6*s_plus_0@7
      + 128647168 s_plus_0@6*s_plus_0@8 + 1507584 s_plus_0@6*s_plus_0@9
      - 502528 s_plus_0@6*s_minus_0@0 - 1005056 s_plus_0@6*s_minus_0@1
      - 2010112 s_plus_0@6*s_minus_0@2 - 4020224 s_plus_0@6*s_minus_0@3
      - 8040448 s_plus_0@6*s_minus_0@4 - 16080896 s_plus_0@6*s_minus_0@5
      - 32161792 s_plus_0@6*s_minus_0@6 - 64323584 s_plus_0@6*s_minus_0@7
      - 128647168 s_plus_0@6*s_minus_0@8 - 1507584 s_plus_0@6*s_minus_0@9
      + 64323584 s_plus_0@7^2 + 257294336 s_plus_0@7*s_plus_0@8
      + 3015168 s_plus_0@7*s_plus_0@9 - 1005056 s_plus_0@7*s_minus_0@0
      - 2010112 s_plus_0@7*s_minus_0@1 - 4020224 s_plus_0@7*s_minus_0@2
      - 8040448 s_plus_0@7*s_minus_0@3 - 16080896 s_plus_0@7*s_minus_0@4
      - 32161792 s_plus_0@7*s_minus_0@5 - 64323584 s_plus_0@7*s_minus_0@6
      - 128647168 s_plus_0@7*s_minus_0@7 - 257294336 s_plus_0@7*s_minus_0@8
      - 3015168 s_plus_0@7*s_minus_0@9 + 257294336 s_plus_0@8^2
      + 6030336 s_plus_0@8*s_plus_0@9 - 2010112 s_plus_0@8*s_minus_0@0
      - 4020224 s_plus_0@8*s_minus_0@1 - 8040448 s_plus_0@8*s_minus_0@2
      - 16080896 s_plus_0@8*s_minus_0@3 - 32161792 s_plus_0@8*s_minus_0@4
      - 64323584 s_plus_0@8*s_minus_0@5 - 128647168 s_plus_0@8*s_minus_0@6
      - 257294336 s_plus_0@8*s_minus_0@7 - 514588672 s_plus_0@8*s_minus_0@8
      - 6030336 s_plus_0@8*s_minus_0@9 + 35334 s_plus_0@9^2
      - 23556 s_plus_0@9*s_minus_0@0 - 47112 s_plus_0@9*s_minus_0@1
      - 94224 s_plus_0@9*s_minus_0@2 - 188448 s_plus_0@9*s_minus_0@3
      - 376896 s_plus_0@9*s_minus_0@4 - 753792 s_plus_0@9*s_minus_0@5
      - 1507584 s_plus_0@9*s_minus_0@6 - 3015168 s_plus_0@9*s_minus_0@7
      - 6030336 s_plus_0@9*s_minus_0@8 - 70668 s_plus_0@9*s_minus_0@9
      + 3926 s_plus_1@0^2 + 15704 s_plus_1@0*s_plus_1@1
      + 31408 s_plus_1@0*s_plus_1@2 + 62816 s_plus_1@0*s_plus_1@3
      + 125632 s_plus_1@0*s_plus_1@4 + 251264 s_plus_1@0*s_plus_1@5
      + 502528 s_plus_1@0*s_plus_1@6 + 1005056 s_plus_1@0*s_plus_1@7
      + 1664624 s_plus_1@0*s_plus_1@8 - 7852 s_plus_1@0*s_minus_1@0
      - 15704 s_plus_1@0*s_minus_1@1 - 31408 s_plus_1@0*s_minus_1@2
      - 62816 s_plus_1@0*s_minus_1@3 - 125632 s_plus_1@0*s_minus_1@4
      - 251264 s_plus_1@0*s_minus_1@5 - 502528 s_plus_1@0*s_minus_1@6
      - 1005056 s_plus_1@0*s_minus_1@7 - 1664624 s_plus_1@0*s_minus_1@8
      + 15704 s_plus_1@1^2 + 62816 s_plus_1@1*s_plus_1@2
      + 125632 s_plus_1@1*s_plus_1@3 + 251264 s_plus_1@1*s_plus_1@4
      + 502528 s_plus_1@1*s_plus_1@5 + 1005056 s_plus_1@1*s_plus_1@6
      + 2010112 s_plus_1@1*s_plus_1@7 + 3329248 s_plus_1@1*s_plus_1@8
      - 15704 s_plus_1@1*s_minus_1@0 - 31408 s_plus_1@1*s_minus_1@1
      - 62816 s_plus_1@1*s_minus_1@2 - 125632 s_plus_1@1*s_minus_1@3
      - 251264 s_plus_1@1*s_minus_1@4 - 502528 s_plus_1@1*s_minus_1@5
      - 1005056 s_plus_1@1*s_minus_1@6 - 2010112 s_plus_1@1*s_minus_1@7
      - 3329248 s_plus_1@1*s_minus_1@8 + 62816 s_plus_1@2^2
      + 251264 s_plus_1@2*s_plus_1@3 + 502528 s_plus_1@2*s_plus_1@4
      + 1005056 s_plus_1@2*s_plus_1@5 + 2010112 s_plus_1@2*s_plus_1@6
      + 4020224 s_plus_1@2*s_plus_1@7 + 6658496 s_plus_1@2*s_plus_1@8
      - 31408 s_plus_1@2*s_minus_1@0 - 62816 s_plus_1@2*s_minus_1@1
      - 125632 s_plus_1@2*s_minus_1@2 - 251264 s_plus_1@2*s_minus_1@3
      - 502528 s_plus_1@2*s_minus_1@4 - 1005056 s_plus_1@2*s_minus_1@5
      - 2010112 s_plus_1@2*s_minus_1@6 - 4020224 s_plus_1@2*s_minus_1@7
      - 6658496 s_plus_1@2*s_minus_1@8 + 251264 s_plus_1@3^2
      + 1005056 s_plus_1@3*s_plus_1@4 + 2010112 s_plus_1@3*s_plus_1@5
      + 4020224 s_plus_1@3*s_plus_1@6 + 8040448 s_plus_1@3*s_plus_1@7
      + 13316992 s_plus_1@3*s_plus_1@8 - 62816 s_plus_1@3*s_minus_1@0
      - 125632 s_plus_1@3*s_minus_1@1 - 251264 s_plus_1@3*s_minus_1@2
      - 502528 s_plus_1@3*s_minus_1@3 - 1005056 s_plus_1@3*s_minus_1@4
      - 2010112 s_plus_1@3*s_minus_1@5 - 4020224 s_plus_1@3*s_minus_1@6
      - 8040448 s_plus_1@3*s_minus_1@7 - 13316992 s_plus_1@3*s_minus_1@8
      + 1005056 s_plus_1@4^2 + 4020224 s_plus_1@4*s_plus_1@5
      + 8040448 s_plus_1@4*s_plus_1@6 + 16080896 s_plus_1@4*s_plus_1@7
      + 26633984 s_plus_1@4*s_plus_1@8 - 125632 s_plus_1@4*s_minus_1@0
      - 251264 s_plus_1@4*s_minus_1@1 - 502528 s_plus_1@4*s_minus_1@2
      - 1005056 s_plus_1@4*s_minus_1@3 - 2010112 s_plus_1@4*s_minus_1@4
      - 4020224 s_plus_1@4*s_minus_1@5 - 8040448 s_plus_1@4*s_minus_1@6
      - 16080896 s_plus_1@4*s_minus_1@7 - 26633984 s_plus_1@4*s_minus_1@8
      + 4020224 s_plus_1@5^2 + 16080896 s_plus_1@5*s_plus_1@6
      + 32161792 s_plus_1@5*s_plus_1@7 + 53267968 s_plus_1@5*s_plus_1@8
      - 251264 s_plus_1@5*s_minus_1@0 - 502528 s_plus_1@5*s_minus_1@1
      - 1005056 s_plus_1@5*s_minus_1@2 - 2010112 s_plus_1@5*s_minus_1@3
      - 4020224 s_plus_1@5*s_minus_1@4 - 8040448 s_plus_1@5*s_minus_1@5
      - 16080896 s_plus_1@5*s_minus_1@6 - 32161792 s_plus_1@5*s_minus_1@7
      - 53267968 s_plus_1@5*s_minus_1@8 + 16080896 s_plus_1@6^2
      + 64323584 s_plus_1@6*s_plus_1@7 + 106535936 s_plus_1@6*s_plus_1@8
      - 502528 s_plus_1@6*s_minus_1@0 - 1005056 s_plus_1@6*s_minus_1@1
      - 2010112 s_plus_1@6*s_minus_1@2 - 4020224 s_plus_1@6*s_minus_1@3
      - 8040448 s_plus_1@6*s_minus_1@4 - 16080896 s_plus_1@6*s_minus_1@5
      - 32161792 s_plus_1@6*s_minus_1@6 - 64323584 s_plus_1@6*s_minus_1@7
      - 106535936 s_plus_1@6*s_minus_1@8 + 64323584 s_plus_1@7^2
      + 213071872 s_plus_1@7*s_plus_1@8 - 1005056 s_plus_1@7*s_minus_1@0
      - 2010112 s_plus_1@7*s_minus_1@1 - 4020224 s_plus_1@7*s_minus_1@2
      - 8040448 s_plus_1@7*s_minus_1@3 - 16080896 s_plus_1@7*s_minus_1@4
      - 32161792 s_plus_1@7*s_minus_1@5 - 64323584 s_plus_1@7*s_minus_1@6
      - 128647168 s_plus_1@7*s_minus_1@7 - 213071872 s_plus_1@7*s_minus_1@8
      + 176450144 s_plus_1@8^2 - 1664624 s_plus_1@8*s_minus_1@0
      - 3329248 s_plus_1@8*s_minus_1@1 - 6658496 s_plus_1@8*s_minus_1@2
      - 13316992 s_plus_1@8*s_minus_1@3 - 26633984 s_plus_1@8*s_minus_1@4
      - 53267968 s_plus_1@8*s_minus_1@5 - 106535936 s_plus_1@8*s_minus_1@6
      - 213071872 s_plus_1@8*s_minus_1@7 - 352900288 s_plus_1@8*s_minus_1@8
      + 3926 s_minus_0@0^2 + 15704 s_minus_0@0*s_minus_0@1
      + 31408 s_minus_0@0*s_minus_0@2 + 62816 s_minus_0@0*s_minus_0@3
      + 125632 s_minus_0@0*s_minus_0@4 + 251264 s_minus_0@0*s_minus_0@5
      + 502528 s_minus_0@0*s_minus_0@6 + 1005056 s_minus_0@0*s_minus_0@7
      + 2010112 s_minus_0@0*s_minus_0@8 + 23556 s_minus_0@0*s_minus_0@9
      + 15704 s_minus_0@1^2 + 62816 s_minus_0@1*s_minus_0@2
      + 125632 s_minus_0@1*s_minus_0@3 + 251264 s_minus_0@1*s_minus_0@4
      + 502528 s_minus_0@1*s_minus_0@5 + 1005056 s_minus_0@1*s_minus_0@6
      + 2010112 s_minus_0@1*s_minus_0@7 + 4020224 s_minus_0@1*s_minus_0@8
      + 47112 s_minus_0@1*s_minus_0@9 + 62816 s_minus_0@2^2
      + 251264 s_minus_0@2*s_minus_0@3 + 502528 s_minus_0@2*s_minus_0@4
      + 1005056 s_minus_0@2*s_minus_0@5 + 2010112 s_minus_0@2*s_minus_0@6
      + 4020224 s_minus_0@2*s_minus_0@7 + 8040448 s_minus_0@2*s_minus_0@8
      + 94224 s_minus_0@2*s_minus_0@9 + 251264 s_minus_0@3^2
      + 1005056 s_minus_0@3*s_minus_0@4 + 2010112 s_minus_0@3*s_minus_0@5
      + 4020224 s_minus_0@3*s_minus_0@6 + 8040448 s_minus_0@3*s_minus_0@7
      + 16080896 s_minus_0@3*s_minus_0@8 + 188448 s_minus_0@3*s_minus_0@9
      + 1005056 s_minus_0@4^2 + 4020224 s_minus_0@4*s_minus_0@5
      + 8040448 s_minus_0@4*s_minus_0@6 + 16080896 s_minus_0@4*s_minus_0@7
      + 32161792 s_minus_0@4*s_minus_0@8 + 376896 s_minus_0@4*s_minus_0@9
      + 4020224 s_minus_0@5^2 + 16080896 s_minus_0@5*s_minus_0@6
      + 32161792 s_minus_0@5*s_minus_0@7 + 64323584 s_minus_0@5*s_minus_0@8
      + 753792 s_minus_0@5*s_minus_0@9 + 16080896 s_minus_0@6^2
      + 64323584 s_minus_0@6*s_minus_0@7 + 128647168 s_minus_0@6*s_minus_0@8
      + 1507584 s_minus_0@6*s_minus_0@9 + 64323584 s_minus_0@7^2
      + 257294336 s_minus_0@7*s_minus_0@8 + 3015168 s_minus_0@7*s_minus_0@9
      + 257294336 s_minus_0@8^2 + 6030336 s_minus_0@8*s_minus_0@9
      + 35334 s_minus_0@9^2 + 3926 s_minus_1@0^2 + 15704 s_minus_1@0*s_minus_1@1
      + 31408 s_minus_1@0*s_minus_1@2 + 62816 s_minus_1@0*s_minus_1@3
      + 125632 s_minus_1@0*s_minus_1@4 + 251264 s_minus_1@0*s_minus_1@5
      + 502528 s_minus_1@0*s_minus_1@6 + 1005056 s_minus_1@0*s_minus_1@7
      + 1664624 s_minus_1@0*s_minus_1@8 + 15704 s_minus_1@1^2
      + 62816 s_minus_1@1*s_minus_1@2 + 125632 s_minus_1@1*s_minus_1@3
      + 251264 s_minus_1@1*s_minus_1@4 + 502528 s_minus_1@1*s_minus_1@5
      + 1005056 s_minus_1@1*s_minus_1@6 + 2010112 s_minus_1@1*s_minus_1@7
      + 3329248 s_minus_1@1*s_minus_1@8 + 62816 s_minus_1@2^2
      + 251264 s_minus_1@2*s_minus_1@3 + 502528 s_minus_1@2*s_minus_1@4
      + 1005056 s_minus_1@2*s_minus_1@5 + 2010112 s_minus_1@2*s_minus_1@6
      + 4020224 s_minus_1@2*s_minus_1@7 + 6658496 s_minus_1@2*s_minus_1@8
      + 251264 s_minus_1@3^2 + 1005056 s_minus_1@3*s_minus_1@4
      + 2010112 s_minus_1@3*s_minus_1@5 + 4020224 s_minus_1@3*s_minus_1@6
      + 8040448 s_minus_1@3*s_minus_1@7 + 13316992 s_minus_1@3*s_minus_1@8
      + 1005056 s_minus_1@4^2 + 4020224 s_minus_1@4*s_minus_1@5
      + 8040448 s_minus_1@4*s_minus_1@6 + 16080896 s_minus_1@4*s_minus_1@7
      + 26633984 s_minus_1@4*s_minus_1@8 + 4020224 s_minus_1@5^2
      + 16080896 s_minus_1@5*s_minus_1@6 + 32161792 s_minus_1@5*s_minus_1@7
      + 53267968 s_minus_1@5*s_minus_1@8 + 16080896 s_minus_1@6^2
      + 64323584 s_minus_1@6*s_minus_1@7 + 106535936 s_minus_1@6*s_minus_1@8
      + 64323584 s_minus_1@7^2 + 213071872 s_minus_1@7*s_minus_1@8
      + 176450144 s_minus_1@8^2 ]/2 + 236223494
Subject To

Bounds
 0 <= x_0 <= 1
 0 <= x_1 <= 1
 0 <= x_2 <= 1
 0 <= x_3 <= 1
 0 <= x_4 <= 1
 0 <= x_5 <= 1
 0 <= x_6 <= 1
 0 <= x_7 <= 1
 0 <= x_8 <= 1
 0 <= x_9 <= 1
 0 <= s_plus_0@0 <= 1
 0 <= s_plus_0@1 <= 1
 0 <= s_plus_0@2 <= 1
 0 <= s_plus_0@3 <= 1
 0 <= s_plus_0@4 <= 1
 0 <= s_plus_0@5 <= 1
 0 <= s_plus_0@6 <= 1
 0 <= s_plus_0@7 <= 1
 0 <= s_plus_0@8 <= 1
 0 <= s_plus_0@9 <= 1
 0 <= s_plus_1@0 <= 1
 0 <= s_plus_1@1 <= 1
 0 <= s_plus_1@2 <= 1
 0 <= s_plus_1@3 <= 1
 0 <= s_plus_1@4 <= 1
 0 <= s_plus_1@5 <= 1
 0 <= s_plus_1@6 <= 1
 0 <= s_plus_1@7 <= 1
 0 <= s_plus_1@8 <= 1
 0 <= s_minus_0@0 <= 1
 0 <= s_minus_0@1 <= 1
 0 <= s_minus_0@2 <= 1
 0 <= s_minus_0@3 <= 1
 0 <= s_minus_0@4 <= 1
 0 <= s_minus_0@5 <= 1
 0 <= s_minus_0@6 <= 1
 0 <= s_minus_0@7 <= 1
 0 <= s_minus_0@8 <= 1
 0 <= s_minus_0@9 <= 1
 0 <= s_minus_1@0 <= 1
 0 <= s_minus_1@1 <= 1
 0 <= s_minus_1@2 <= 1
 0 <= s_minus_1@3 <= 1
 0 <= s_minus_1@4 <= 1
 0 <= s_minus_1@5 <= 1
 0 <= s_minus_1@6 <= 1
 0 <= s_minus_1@7 <= 1
 0 <= s_minus_1@8 <= 1

Binaries
 x_0 x_1 x_2 x_3 x_4 x_5 x_6 x_7 x_8 x_9 s_plus_0@0 s_plus_0@1 s_plus_0@2
 s_plus_0@3 s_plus_0@4 s_plus_0@5 s_plus_0@6 s_plus_0@7 s_plus_0@8 s_plus_0@9
 s_plus_1@0 s_plus_1@1 s_plus_1@2 s_plus_1@3 s_plus_1@4 s_plus_1@5 s_plus_1@6
 s_plus_1@7 s_plus_1@8 s_minus_0@0 s_minus_0@1 s_minus_0@2 s_minus_0@3
 s_minus_0@4 s_minus_0@5 s_minus_0@6 s_minus_0@7 s_minus_0@8 s_minus_0@9
 s_minus_1@0 s_minus_1@1 s_minus_1@2 s_minus_1@3 s_minus_1@4 s_minus_1@5
 s_minus_1@6 s_minus_1@7 s_minus_1@8
End
